p cnf 42 110
1 2 3 0
4 5 6 0
7 8 9 0
10 11 12 0
13 14 15 0
16 17 18 0
19 20 21 0
22 23 24 0
25 26 27 0
28 29 30 0
31 32 33 0
34 35 36 0
37 38 39 0
40 41 42 0
-1 -2 0
-1 -3 0
-2 -3 0
-4 -5 0
-4 -6 0
-5 -6 0
-7 -8 0
-7 -9 0
-8 -9 0
-10 -11 0
-10 -12 0
-11 -12 0
-13 -14 0
-13 -15 0
-14 -15 0
-16 -17 0
-16 -18 0
-17 -18 0
-19 -20 0
-19 -21 0
-20 -21 0
-22 -23 0
-22 -24 0
-23 -24 0
-25 -26 0
-25 -27 0
-26 -27 0
-28 -29 0
-28 -30 0
-29 -30 0
-31 -32 0
-31 -33 0
-32 -33 0
-34 -35 0
-34 -36 0
-35 -36 0
-37 -38 0
-37 -39 0
-38 -39 0
-40 -41 0
-40 -42 0
-41 -42 0
-1 -31 0
-2 -32 0
-3 -33 0
-1 -34 0
-2 -35 0
-3 -36 0
-1 -37 0
-2 -38 0
-3 -39 0
-4 -28 0
-5 -29 0
-6 -30 0
-4 -40 0
-5 -41 0
-6 -42 0
-7 -19 0
-8 -20 0
-9 -21 0
-7 -28 0
-8 -29 0
-9 -30 0
-7 -31 0
-8 -32 0
-9 -33 0
-7 -40 0
-8 -41 0
-9 -42 0
-10 -22 0
-11 -23 0
-12 -24 0
-10 -31 0
-11 -32 0
-12 -33 0
-10 -37 0
-11 -38 0
-12 -39 0
-13 -34 0
-14 -35 0
-15 -36 0
-13 -40 0
-14 -41 0
-15 -42 0
-16 -25 0
-17 -26 0
-18 -27 0
-22 -34 0
-23 -35 0
-24 -36 0
-25 -34 0
-26 -35 0
-27 -36 0
-34 -37 0
-35 -38 0
-36 -39 0
